proyfinal/src/viki/013/experimentInOfficeAgust.take6.output/a370e903-e729-47d9-8cf2-90c5a70acbfc.als.dat
{'cnf.clauses': '118081',
 'cnf.totvars': '69608',
 'conflict literals': '27',
 'conflicts': '15',
 'decisions': '2156',
 'memused.mb': '16.76',
 'outcome': 'UNSAT',
 'propagations': '24721',
 'restarts': '1',
 'solver.msecs': 30,
 'task.msecs': 85}
