proyfinal/src/viki/013/experimentInOfficeAgust.take6.output/a370e903-e729-47d9-8cf2-90c5a70acbfc.als.out
Reading from standard input... Use '--help' for help.
============================[ Problem Statistics ]=============================
|                                                                             |
|  Number of variables:         69608                                         |
|  Number of clauses:          118081                                         |
|  Parse time:                   0.02 s                                       |
|                                                                             |
============================[ Search Statistics ]==============================
| Conflicts |          ORIGINAL         |          LEARNT          | Progress |
|           |    Vars  Clauses Literals |    Limit  Clauses Lit/Cl |          |
===============================================================================
===============================================================================
restarts              : 1
conflicts             : 15             (491 /sec)
decisions             : 2156           (0.00 % random) (70550 /sec)
propagations          : 24721          (808933 /sec)
conflict literals     : 27             (0.00 % deleted)
Memory used           : 16.76 MB
CPU time              : 0.03056 s

UNSATISFIABLE
